echo
title "tutorial demonstrating ECP usage"

start ecpchho

geometry units au
  C         0.000000  0.000000 -1.025176
  O         0.000000  0.000000  1.280289
  H         0.000000  1.767475 -2.045628
  H         0.000000 -1.767475 -2.045628
end

basis 
  C  SP
   0.1675097360D+02 -0.7812840500D-01  0.3088908800D-01
   0.2888377460D+01 -0.3741108860D+00  0.2645728130D+00
   0.6904575040D+00  0.1229059640D+01  0.8225024920D+00
  C  SP
   0.1813976910D+00  0.1000000000D+01  0.1000000000D+01
  C  D
   0.8000000000D+00  0.1000000000D+01
  C  F
   0.1000000000D+01  0.1000000000D+01
  O  SP
   0.1842936330D+02 -0.1218775590D+00  0.5975796600D-01
   0.4047420810D+01 -0.1962142380D+00  0.3267825930D+00
   0.1093836980D+01  0.1156987900D+01  0.7484058930D+00
  O  SP
   0.2906290230D+00  0.1000000000D+01  0.1000000000D+01
  O  D
   0.8000000000D+00  0.1000000000D+01
  O  F
   0.1100000000D+01  0.1000000000D+01
  H  S
   0.1873113696D+02  0.3349460434D-01
   0.2825394365D+01  0.2347269535D+00
   0.6401216923D+00  0.8137573262D+00
  H  S 
   0.1612777588D+00  0.1000000000D+01
end

ecp
  C nelec 2
  C ul
        1       80.0000000       -1.60000000
        1       30.0000000       -0.40000000
        2        0.5498205       -0.03990210
  C s
        0        0.7374760        0.63810832
        0      135.2354832       11.00916230
        2        8.5605569       20.13797020
  C p
        2       10.6863587       -3.24684280
        2       23.4979897        0.78505765
  O nelec 2
  O ul
        1       80.0000000       -1.60000000
        1       30.0000000       -0.40000000
        2        1.0953760       -0.06623814
  O s
        0        0.9212952        0.39552179
        0       28.6481971        2.51654843
        2        9.3033500       17.04478500
  O p
        2       52.3427019       27.97790770
        2       30.7220233      -16.49630500
end

dft
  xc b3lyp
  iterations 100
end

task dft
