echo
title "total energy of benzene, B3LYP/3-21G"

start c6h6-b3lyp

geometry
 C    0.99261000     0.99261000     0.00000000
 C   -1.35593048     0.36332048     0.00000000
 C    0.36332048    -1.35593048     0.00000000
 C   -0.99261000    -0.99261000     0.00000000
 C    1.35593048    -0.36332048     0.00000000
 C   -0.36332048     1.35593048     0.00000000
 H    1.75792000     1.75792000     0.00000000
 H   -2.40136338     0.64344338     0.00000000
 H    0.64344338    -2.40136338     0.00000000
 H   -1.75792000    -1.75792000     0.00000000
 H    2.40136338    -0.64344338     0.00000000
 H   -0.64344338     2.40136338     0.00000000
end

basis "ao basis" spherical
* library def2-qzvp
end

basis "cd basis" spherical bse
 * library def2-universal-jkfit
end

dft
  adft
  xc pbe96
end

task dft energy
task dft optimize
