echo

start 2H2O_b3lyp

title "2 waters"

memory 1000 mb

geometry
symmetry c1
O     -0.000545       1.517541       0.000000
H      0.094538       0.553640       0.000000
H      0.901237       1.847958       0.000000
O     -0.000545      -1.389760       0.000000
H     -0.493527      -1.711924       0.761014
H     -0.493527      -1.711924      -0.761014
end

basis
 O library 6-31G**
 H library 6-31G**
end

dft
 xc b3lyp
end

tddft
 nroots 10
 notriplet
end
task tddft energy
